c This is QMaxSAT 2017 based on 14.07
c This is Glucose 3.0
c This is MiniSat 2.2.0
c WARNING: for repeatability, setting FPU to use double precision
c card = mrwto, comp = 0, pmodel = 0, narr = 4, mct = 42, verb = 0
cr firstCPXsol 0 0 0
c top = 127531
c |  Number of variables:    4050                                             |
c |  Number of clauses:      165238                                           |
c |  Weight of hard clauses: 127531                                           |
c |  Number of soft clauses: 7872                                             |
c |  Number of unit soft clauses: 0                                           |
c |  Maximum Cardinality (by unit): 598344       (0           )               |
c last restart ## conflicts  :  3 1177 
o 2445 | cpuTime 1.32386 s
c Sum of weights = 149586
c A number of soft clauses remained = 1968
c MRWTO encoding for Pseudo-Boolean Constraints
c sizeMax=2445
c No.0 Divisor=14	generated by pow1
c No.1 Divisor=14	generated by pow1
c No.2 Divisor=14	generated by pow1
c p0= 14	p1= 14	p2= 14	
c number of digits = 4
c linkingVar[0].size = 14, linkingVar[1].size = 14, linkingVar[2].size = 13, linkingVar[3].size = 1, 
c Pseudo-Boolean Constraints: 43580 variables and 477897 clauses
c Sum of weights = 149586
c A number of soft clauses remained = 1968
c MRWTO encoding for Pseudo-Boolean Constraints
c sizeMax=2445
c No.0 Divisor=14	generated by pow1
c No.1 Divisor=14	generated by pow1
c No.2 Divisor=14	generated by pow1
c p0= 14	p1= 14	p2= 14	
c number of digits = 4
c linkingVar[0].size = 14, linkingVar[1].size = 14, linkingVar[2].size = 13, linkingVar[3].size = 1, 
c Pseudo-Boolean Constraints: 43580 variables and 477897 clauses
c Sum of weights = 149586
c A number of soft clauses remained = 1968
c MRWTO encoding for Pseudo-Boolean Constraints
c sizeMax=2445
c No.0 Divisor=14	generated by pow1
c No.1 Divisor=14	generated by pow1
c No.2 Divisor=14	generated by pow1
c p0= 14	p1= 14	p2= 14	
c number of digits = 4
c linkingVar[0].size = 14, linkingVar[1].size = 14, linkingVar[2].size = 13, linkingVar[3].size = 1, 
c Pseudo-Boolean Constraints: 43580 variables and 477897 clauses
c Sum of weights = 149586
c A number of soft clauses remained = 1968
c MRWTO encoding for Pseudo-Boolean Constraints
c sizeMax=2445
c No.0 Divisor=14	generated by pow1
c No.1 Divisor=14	generated by pow1
c No.2 Divisor=14	generated by pow1
c p0= 14	p1= 14	p2= 14	
c number of digits = 4
c linkingVar[0].size = 14, linkingVar[1].size = 14, linkingVar[2].size = 13, linkingVar[3].size = 1, 
c Pseudo-Boolean Constraints: 43580 variables and 477897 clauses
c last restart ## conflicts  :  229 6656 
o 2006 | cpuTime 1.66599 s
c last restart ## conflicts  :  681 5464 
o 1944 | cpuTime 1.89073 s
c last restart ## conflicts  :  501 4084 
o 1767 | cpuTime 35.4962 s
c last restart ## conflicts  :  1244 3984 
o 1125 | cpuTime 35.7698 s
c last restart ## conflicts  :  787 3004 
o 1096 | cpuTime 37.8563 s
c last restart ## conflicts  :  1382 2814 
o 1047 | cpuTime 39.2651 s
c last restart ## conflicts  :  1416 2929 
o 958 | cpuTime 40.0013 s
c last restart ## conflicts  :  1251 2309 
o 937 | cpuTime 41.0403 s
c last restart ## conflicts  :  1352 2050 
o 933 | cpuTime 43.1301 s
c last restart ## conflicts  :  1318 1943 
o 893 | cpuTime 43.6838 s
c last restart ## conflicts  :  875 2065 
o 882 | cpuTime 45.0643 s
c last restart ## conflicts  :  2404 2164 
o 830 | cpuTime 46.6662 s
c last restart ## conflicts  :  260 2495 
o 811 | cpuTime 47.452 s
c last restart ## conflicts  :  597 2039 
o 782 | cpuTime 49.8698 s
c last restart ## conflicts  :  281 2326 
o 703 | cpuTime 53.1527 s
c last restart ## conflicts  :  802 2535 
o 684 | cpuTime 59.6249 s
c last restart ## conflicts  :  416 2058 
o 568 | cpuTime 89.0527 s
s UNKNOWN
c Search is stopped by a limit (maybe time-limit)
cr positiVarArr: [ | 30(1->27) | 77(1->29) | 103(1->10) | 179(1->41) | 181(2->1) | 233(3->5) | 279(4->6) | 358(5->40) | 370(6->7) | 416(7->8) | 456(8->3) | 500(9->2) | 554(10->11) | 600(11->12) | 652(12->19) | 695(13->17) | 745(14->22) | 777(15->9) | 827(16->14) | 859(17->1) | 919(18->16) | 963(19->15) | 1021(20->28) | 1070(21->32) | 1096(22->13) | 1154(23->26) | 1194(24->21) | 1248(25->30) | 1283(26->20) | 1326(27->18) | 1387(28->34) | 1423(29->25) | 1476(30->33) | 1511(31->23) | 1569(32->36) | 1602(33->24) | 1658(34->35) | 1707(35->39) | 1750(36->37) | 1758(37->1) | 1845(38->42) | 1886(39->38) | 1924(40->31) | 1942(41->4) | 1982(42->1) | ]
cr the 1-th chain: [ 1->27->18->16->14->22->13->17->1 ] (#non-depot=7) {#cumul.=8}
cr the 2-th chain: [ 1->29->25->30->33->24->21->32->36->37->1 ] (#non-depot=9) {#cumul.=17}
cr the 3-th chain: [ 1->10->11->12->19->15->9->2->1 ] (#non-depot=7) {#cumul.=24}
cr the 4-th chain: [ 1->41->4->6->7->8->3->5->40->31->23->26->20->28->34->35->39->38->42->1 ] (#non-depot=18) {#cumul.=42}
c Latest Answer = 0 by 18 loops
c restarts              : 47589
c conflicts             : 18057214       (5025 /sec)
c decisions             : 71952766       (0.00 % random) (20024 /sec)
c propagations          : 27090176245    (7538891 /sec)
c conflict literals     : 2609305552     (38.22 % deleted)
c Memory used           : 658.00 MB
c CPU time              : 3593.39 s
